c 9th DIMACS Implementation Challenge: Shortest Paths
c http://www.dis.uniroma1.it/~challenge9
c TIGER/Line graph USA-road-d.NY
c
p sp 5 7
c graph contains 5 nodes and 7 arcs
c
a 1 2 2
a 1 3 6
a 2 3 3
a 2 4 4
a 2 5 5
a 3 5 1
a 5 4 2
